\ LP format - for model browsing. Use MPS format to capture full model detail.
Minimize
  0 B30(0) + 0 B32(0) + 0 B33(0) + 0 B34(0) + 0 B35(0) + 0 B36(0) + 0 B38(0)
   + 0 B42(0) + 0 B44(0) + 0 B46(0) + 0 B48(0) + 0 B50(0) + 0 B52(0)
   + 0 B54(0) + 0 B59(0) + 0 B60(0) + 0 B62(0) + 0 B65(0) + 0 B69(0)
   + 0 B75(0) + 0 B76(0) + 0 B77(0) + 0 B78(0) + 0 B84(0) + 0 B85(0)
   + 0 B87(0) + 0 B88(0) + 0 B90(0) + 0 B91(0) + 0 B92(0) + 0 B94(0)
   + 0 B97(0) + 0 B99(0) + 0 B101(0) + 0 B105(0) + 0 B106(0) + 0 B107(0)
   + 0 B110(0) + 0 B111(0) + 0 B112(0) + 0 B115(0) + 0 B116(0) + 0 B118(0)
   + 0 B120(0) + 0 B121(0) + 0 B122(0) + 0 B123(0) + 0 B124(0) + 0 B125(0)
   + 0 B126(0) + 0 B129(0) + 0 B135(0) + 0 B136(0) + 0 B137(0) + 0 B138(0)
   + 0 B139(0) + 0 B140(0) + 0 B142(0) + 0 B143(0) + 0 B147(0) + 0 B148(0)
   + 0 B150(0) + 0 B151(0) + 0 B152(0) + 0 B153(0) + 0 B154(0) + 0 B155(0)
   + 0 B157(0) + 0 B158(0) + 0 B159(0) + 0 B161(0) + 0 B165(0) + 0 B166(0)
   + 0 B167(0) + 0 B168(0) + 0 B169(0) + 0 B170(0) + 0 B171(0) + 0 B172(0)
   + 0 B173(0) + 0 B174(0) + 0 B176(0) + 0 B178(0) + 0 B179(0) + 0 B180(0)
   + 0 B181(0) + 0 B182(0) + 0 B183(0) + 0 B184(0) + 0 B185(0) + 0 B186(0)
   + 0 B187(0) + 0 B188(0) + 0 B190(0) + 0 B191(0) + 0 B194(0) + 0 B195(0)
   + 0 B196(0) + 0 B197(0) + 0 B198(0) + 0 B199(0) + 0 B200(0) + 0 B201(0)
   + 0 B202(0) + 0 B203(0) + 0 B204(0) + 0 B205(0) + 0 B206(0) + 0 B207(0)
   + 0 B210(0) + 0 B211(0) + 0 B212(0) + 0 B213(0) + 0 B214(0) + 0 B215(0)
   + 0 B216(0) + 0 B217(0) + 0 B218(0) + 0 B219(0) + 0 B220(0) + 0 B221(0)
   + 0 B222(0) + 0 B224(0) + 0 B225(0) + 0 B226(0) + 0 B227(0) + 0 B228(0)
   + 0 B229(0) + 0 B230(0) + 0 B231(0) + 0 B232(0) + 0 B233(0) + 0 B234(0)
   + 0 B235(0) + 0 B236(0) + 0 B238(0) + 0 B239(0) + 0 B240(0) + 0 B241(0)
   + 0 B242(0) + 0 B243(0) + 0 B244(0) + 0 B245(0) + 0 B246(0) + 0 B247(0)
   + 0 B248(0) + 0 B249(0) + 0 B250(0) + 0 B251(0) + 0 B252(0) + 0 B253(0)
   + 0 B254(0) + I285(1)
Subject To
 c0: B0(11) + B1(9) = 1
 c1: B2(20) + B3(12) = 1
 c2: B4(20) + B5(14) = 1
 c3: B6(15) + B7(13) = 1
 c4: B8(16) + B9(18) = 1
 c5: B10(7) + B11(15) = 1
 c6: B12(20) + B13(16) = 1
 c7: B14(16) + B15(10) = 1
 c8: B16(12) + B17(20) = 1
 c9: B18(8) + B19(12) = 1
 c10: B20(18) + B21(12) = 1
 c11: B22(10) + B23(14) = 1
 c12: B24(8) + B25(20) = 1
 c13: B26(19) + B27(9) = 1
 c14: B28(11) + B29(13) = 1
 c15: - 1e+06 B0(11) + C255(13) <= 0
 c16: - 1e+06 B1(9) + C256(11) <= 0
 c17: - 1e+06 B2(20) + C257(21) <= 0
 c18: - 1e+06 B3(12) + C258(13) <= 0
 c19: - 1e+06 B4(20) + C259(20) <= 0
 c20: - 1e+06 B5(14) + C260(14) <= 0
 c21: - 1e+06 B6(15) + C261(18) <= 0
 c22: - 1e+06 B7(13) + C262(16) <= 0
 c23: - 1e+06 B8(16) + C263(16) <= 0
 c24: - 1e+06 B9(18) + C264(18) <= 0
 c25: - 1e+06 B10(7) + C265(8) <= 0
 c26: - 1e+06 B11(15) + C266(16) <= 0
 c27: - 1e+06 B12(20) + C267(21) <= 0
 c28: - 1e+06 B13(16) + C268(17) <= 0
 c29: - 1e+06 B14(16) + C269(17) <= 0
 c30: - 1e+06 B15(10) + C270(11) <= 0
 c31: - 1e+06 B16(12) + C271(12) <= 0
 c32: - 1e+06 B17(20) + C272(20) <= 0
 c33: - 1e+06 B18(8) + C273(10) <= 0
 c34: - 1e+06 B19(12) + C274(14) <= 0
 c35: - 1e+06 B20(18) + C275(18) <= 0
 c36: - 1e+06 B21(12) + C276(12) <= 0
 c37: - 1e+06 B22(10) + C277(10) <= 0
 c38: - 1e+06 B23(14) + C278(14) <= 0
 c39: - 1e+06 B24(8) + C279(10) <= 0
 c40: - 1e+06 B25(20) + C280(22) <= 0
 c41: - 1e+06 B26(19) + C281(20) <= 0
 c42: - 1e+06 B27(9) + C282(10) <= 0
 c43: - 1e+06 B28(11) + C283(12) <= 0
 c44: - 1e+06 B29(13) + C284(14) <= 0
 c45: - 1e+06 B0(11) - 1e+06 B3(12) - 1e+06 B31(2) + C255(13) - C258(13)
   >= -2.999993e+06
 c46: - 1e+06 B0(11) - 1e+06 B3(12) + 1e+06 B31(2) - C255(13) + C258(13)
   >= -1.999986e+06
 c47: - 1e+06 B1(9) - 1e+06 B15(10) - 1e+06 B37(2) + C256(11) - C270(11)
   >= -2.999993e+06
 c48: - 1e+06 B1(9) - 1e+06 B15(10) + 1e+06 B37(2) - C256(11) + C270(11)
   >= -1.999989e+06
 c49: - 1e+06 B1(9) - 1e+06 B19(12) - 1e+06 B39(2) + C256(11) - C274(14)
   >= -2.999988e+06
 c50: - 1e+06 B1(9) - 1e+06 B19(12) + 1e+06 B39(2) - C256(11) + C274(14)
   >= -1.999991e+06
 c51: - 1e+06 B1(9) - 1e+06 B21(12) - 1e+06 B40(2) + C256(11) - C276(12)
   >= -2.999992e+06
 c52: - 1e+06 B1(9) - 1e+06 B21(12) + 1e+06 B40(2) - C256(11) + C276(12)
   >= -1.999987e+06
 c53: - 1e+06 B0(11) - 1e+06 B22(10) - 1e+06 B41(2) + C255(13) - C277(10)
   >= -2.999993e+06
 c54: - 1e+06 B0(11) - 1e+06 B22(10) + 1e+06 B41(2) - C255(13) + C277(10)
   >= -1.999992e+06
 c55: - 1e+06 B0(11) - 1e+06 B27(9) - 1e+06 B43(2) + C255(13) - C282(10)
   >= -2.999994e+06
 c56: - 1e+06 B0(11) - 1e+06 B27(9) + 1e+06 B43(2) - C255(13) + C282(10)
   >= -1.999991e+06
 c57: - 1e+06 B0(11) - 1e+06 B3(12) - 1e+06 B45(2) - C255(13) + C258(13)
   >= -2.999986e+06
 c58: - 1e+06 B0(11) - 1e+06 B3(12) + 1e+06 B45(2) + C255(13) - C258(13)
   >= -1.999993e+06
 c59: - 1e+06 B2(20) - 1e+06 B4(20) - 1e+06 B47(2) + C257(21) - C259(20)
   >= -2.999989e+06
 c60: - 1e+06 B2(20) - 1e+06 B4(20) + 1e+06 B47(2) - C257(21) + C259(20)
   >= -1.999986e+06
 c61: - 1e+06 B2(20) - 1e+06 B9(18) - 1e+06 B49(2) + C257(21) - C264(18)
   >= -2.99999e+06
 c62: - 1e+06 B2(20) - 1e+06 B9(18) + 1e+06 B49(2) - C257(21) + C264(18)
   >= -1.999976e+06
 c63: - 1e+06 B2(20) - 1e+06 B12(20) - 1e+06 B51(2) + C257(21) - C267(21)
   >= -2.999977e+06
 c64: - 1e+06 B2(20) - 1e+06 B12(20) + 1e+06 B51(2) - C257(21) + C267(21)
   >= -1.999976e+06
 c65: - 1e+06 B2(20) - 1e+06 B17(20) - 1e+06 B53(2) + C257(21) - C272(20)
   >= -2.999993e+06
 c66: - 1e+06 B2(20) - 1e+06 B17(20) + 1e+06 B53(2) - C257(21) + C272(20)
   >= -1.99999e+06
 c67: - 1e+06 B2(20) - 1e+06 B20(18) - 1e+06 B55(2) + C257(21) - C275(18)
   >= -2.999989e+06
 c68: - 1e+06 B2(20) - 1e+06 B20(18) + 1e+06 B55(2) - C257(21) + C275(18)
   >= -1.99999e+06
 c69: - 1e+06 B3(12) - 1e+06 B22(10) - 1e+06 B56(2) + C258(13) - C277(10)
   >= -2.999982e+06
 c70: - 1e+06 B3(12) - 1e+06 B22(10) + 1e+06 B56(2) - C258(13) + C277(10)
   >= -1.999982e+06
 c71: - 1e+06 B2(20) - 1e+06 B25(20) - 1e+06 B57(2) + C257(21) - C280(22)
   >= -2.999994e+06
 c72: - 1e+06 B2(20) - 1e+06 B25(20) + 1e+06 B57(2) - C257(21) + C280(22)
   >= -1.99999e+06
 c73: - 1e+06 B2(20) - 1e+06 B26(19) - 1e+06 B58(4) + C257(21) - C281(20)
   >= -2.999972e+06
 c74: - 1e+06 B2(20) - 1e+06 B26(19) + 1e+06 B58(4) - C257(21) + C281(20)
   >= -1.999992e+06
 c75: - 1e+06 B3(12) - 1e+06 B27(9) - 1e+06 B58(4) + C258(13) - C282(10)
   >= -2.999992e+06
 c76: - 1e+06 B3(12) - 1e+06 B27(9) + 1e+06 B58(4) - C258(13) + C282(10)
   >= -1.999995e+06
 c77: - 1e+06 B2(20) - 1e+06 B4(20) - 1e+06 B61(2) - C257(21) + C259(20)
   >= -2.999986e+06
 c78: - 1e+06 B2(20) - 1e+06 B4(20) + 1e+06 B61(2) + C257(21) - C259(20)
   >= -1.999989e+06
 c79: - 1e+06 B5(14) - 1e+06 B7(13) - 1e+06 B63(2) + C260(14) - C262(16)
   >= -2.999988e+06
 c80: - 1e+06 B5(14) - 1e+06 B7(13) + 1e+06 B63(2) - C260(14) + C262(16)
   >= -1.999992e+06
 c81: - 1e+06 B4(20) - 1e+06 B9(18) - 1e+06 B64(2) + C259(20) - C264(18)
   >= -2.999984e+06
 c82: - 1e+06 B4(20) - 1e+06 B9(18) + 1e+06 B64(2) - C259(20) + C264(18)
   >= -1.999996e+06
 c83: - 1e+06 B4(20) - 1e+06 B12(20) - 1e+06 B66(4) + C259(20) - C267(21)
   >= -2.999972e+06
 c84: - 1e+06 B4(20) - 1e+06 B12(20) + 1e+06 B66(4) - C259(20) + C267(21)
   >= -1.999996e+06
 c85: - 1e+06 B5(14) - 1e+06 B13(16) - 1e+06 B66(4) + C260(14) - C268(17)
   >= -2.999993e+06
 c86: - 1e+06 B5(14) - 1e+06 B13(16) + 1e+06 B66(4) - C260(14) + C268(17)
   >= -1.999994e+06
 c87: - 1e+06 B5(14) - 1e+06 B14(16) - 1e+06 B67(2) + C260(14) - C269(17)
   >= -2.999977e+06
 c88: - 1e+06 B5(14) - 1e+06 B14(16) + 1e+06 B67(2) - C260(14) + C269(17)
   >= -1.99999e+06
 c89: - 1e+06 B4(20) - 1e+06 B17(20) - 1e+06 B68(2) + C259(20) - C272(20)
   >= -2.99998e+06
 c90: - 1e+06 B4(20) - 1e+06 B17(20) + 1e+06 B68(2) - C259(20) + C272(20)
   >= -1.999992e+06
 c91: - 1e+06 B4(20) - 1e+06 B20(18) - 1e+06 B70(2) + C259(20) - C275(18)
   >= -2.999975e+06
 c92: - 1e+06 B4(20) - 1e+06 B20(18) + 1e+06 B70(2) - C259(20) + C275(18)
   >= -1.999996e+06
 c93: - 1e+06 B5(14) - 1e+06 B23(14) - 1e+06 B71(2) + C260(14) - C278(14)
   >= -2.99999e+06
 c94: - 1e+06 B5(14) - 1e+06 B23(14) + 1e+06 B71(2) - C260(14) + C278(14)
   >= -1.999992e+06
 c95: - 1e+06 B4(20) - 1e+06 B25(20) - 1e+06 B72(2) + C259(20) - C280(22)
   >= -2.99999e+06
 c96: - 1e+06 B4(20) - 1e+06 B25(20) + 1e+06 B72(2) - C259(20) + C280(22)
   >= -1.999993e+06
 c97: - 1e+06 B4(20) - 1e+06 B26(19) - 1e+06 B73(2) + C259(20) - C281(20)
   >= -2.999977e+06
 c98: - 1e+06 B4(20) - 1e+06 B26(19) + 1e+06 B73(2) - C259(20) + C281(20)
   >= -1.999994e+06
 c99: - 1e+06 B5(14) - 1e+06 B29(13) - 1e+06 B74(2) + C260(14) - C284(14)
   >= -2.999976e+06
 c100: - 1e+06 B5(14) - 1e+06 B29(13) + 1e+06 B74(2) - C260(14) + C284(14)
   >= -1.999993e+06
 c101: - 1e+06 B6(15) - 1e+06 B8(16) - 1e+06 B79(2) + C261(18) - C263(16)
   >= -2.99999e+06
 c102: - 1e+06 B6(15) - 1e+06 B8(16) + 1e+06 B79(2) - C261(18) + C263(16)
   >= -1.999983e+06
 c103: - 1e+06 B6(15) - 1e+06 B11(15) - 1e+06 B80(2) + C261(18) - C266(16)
   >= -2.999981e+06
 c104: - 1e+06 B6(15) - 1e+06 B11(15) + 1e+06 B80(2) - C261(18) + C266(16)
   >= -1.999983e+06
 c105: - 1e+06 B7(13) - 1e+06 B13(16) - 1e+06 B81(2) + C262(16) - C268(17)
   >= -2.999973e+06
 c106: - 1e+06 B7(13) - 1e+06 B13(16) + 1e+06 B81(2) - C262(16) + C268(17)
   >= -1.999993e+06
 c107: - 1e+06 B7(13) - 1e+06 B14(16) - 1e+06 B82(2) + C262(16) - C269(17)
   >= -2.999991e+06
 c108: - 1e+06 B7(13) - 1e+06 B14(16) + 1e+06 B82(2) - C262(16) + C269(17)
   >= -1.999996e+06
 c109: - 1e+06 B6(15) - 1e+06 B16(12) - 1e+06 B83(2) + C261(18) - C271(12)
   >= -2.999993e+06
 c110: - 1e+06 B6(15) - 1e+06 B16(12) + 1e+06 B83(2) - C261(18) + C271(12)
   >= -1.999983e+06
 c111: - 1e+06 B7(13) - 1e+06 B23(14) - 1e+06 B86(2) + C262(16) - C278(14)
   >= -2.999988e+06
 c112: - 1e+06 B7(13) - 1e+06 B23(14) + 1e+06 B86(2) - C262(16) + C278(14)
   >= -1.999986e+06
 c113: - 1e+06 B6(15) - 1e+06 B28(11) - 1e+06 B89(4) + C261(18) - C283(12)
   >= -2.99998e+06
 c114: - 1e+06 B6(15) - 1e+06 B28(11) + 1e+06 B89(4) - C261(18) + C283(12)
   >= -1.999983e+06
 c115: - 1e+06 B7(13) - 1e+06 B29(13) - 1e+06 B89(4) + C262(16) - C284(14)
   >= -2.999984e+06
 c116: - 1e+06 B7(13) - 1e+06 B29(13) + 1e+06 B89(4) - C262(16) + C284(14)
   >= -1.999994e+06
 c117: - 1e+06 B6(15) - 1e+06 B8(16) - 1e+06 B93(2) - C261(18) + C263(16)
   >= -2.999983e+06
 c118: - 1e+06 B6(15) - 1e+06 B8(16) + 1e+06 B93(2) + C261(18) - C263(16)
   >= -1.99999e+06
 c119: - 1e+06 B8(16) - 1e+06 B11(15) - 1e+06 B95(2) + C263(16) - C266(16)
   >= -2.999977e+06
 c120: - 1e+06 B8(16) - 1e+06 B11(15) + 1e+06 B95(2) - C263(16) + C266(16)
   >= -1.999975e+06
 c121: - 1e+06 B9(18) - 1e+06 B12(20) - 1e+06 B96(2) + C264(18) - C267(21)
   >= -2.999994e+06
 c122: - 1e+06 B9(18) - 1e+06 B12(20) + 1e+06 B96(2) - C264(18) + C267(21)
   >= -1.999981e+06
 c123: - 1e+06 B8(16) - 1e+06 B16(12) - 1e+06 B98(4) + C263(16) - C271(12)
   >= -2.999989e+06
 c124: - 1e+06 B8(16) - 1e+06 B16(12) + 1e+06 B98(4) - C263(16) + C271(12)
   >= -1.999986e+06
 c125: - 1e+06 B9(18) - 1e+06 B17(20) - 1e+06 B98(4) + C264(18) - C272(20)
   >= -2.999992e+06
 c126: - 1e+06 B9(18) - 1e+06 B17(20) + 1e+06 B98(4) - C264(18) + C272(20)
   >= -1.999986e+06
 c127: - 1e+06 B9(18) - 1e+06 B20(18) - 1e+06 B100(2) + C264(18) - C275(18)
   >= -2.99998e+06
 c128: - 1e+06 B9(18) - 1e+06 B20(18) + 1e+06 B100(2) - C264(18) + C275(18)
   >= -1.999988e+06
 c129: - 1e+06 B9(18) - 1e+06 B25(20) - 1e+06 B102(2) + C264(18) - C280(22)
   >= -2.999993e+06
 c130: - 1e+06 B9(18) - 1e+06 B25(20) + 1e+06 B102(2) - C264(18) + C280(22)
   >= -1.99999e+06
 c131: - 1e+06 B9(18) - 1e+06 B26(19) - 1e+06 B103(2) + C264(18) - C281(20)
   >= -2.999988e+06
 c132: - 1e+06 B9(18) - 1e+06 B26(19) + 1e+06 B103(2) - C264(18) + C281(20)
   >= -1.999976e+06
 c133: - 1e+06 B8(16) - 1e+06 B28(11) - 1e+06 B104(2) + C263(16) - C283(12)
   >= -2.99998e+06
 c134: - 1e+06 B8(16) - 1e+06 B28(11) + 1e+06 B104(2) - C263(16) + C283(12)
   >= -1.999989e+06
 c135: - 1e+06 B6(15) - 1e+06 B11(15) - 1e+06 B108(2) - C261(18) + C266(16)
   >= -2.999983e+06
 c136: - 1e+06 B6(15) - 1e+06 B11(15) + 1e+06 B108(2) + C261(18) - C266(16)
   >= -1.999981e+06
 c137: - 1e+06 B8(16) - 1e+06 B11(15) - 1e+06 B109(2) - C263(16) + C266(16)
   >= -2.999975e+06
 c138: - 1e+06 B8(16) - 1e+06 B11(15) + 1e+06 B109(2) + C263(16) - C266(16)
   >= -1.999977e+06
 c139: - 1e+06 B11(15) - 1e+06 B16(12) - 1e+06 B113(2) + C266(16)
   - C271(12) >= -2.999991e+06
 c140: - 1e+06 B11(15) - 1e+06 B16(12) + 1e+06 B113(2) - C266(16)
   + C271(12) >= -1.999989e+06
 c141: - 1e+06 B10(7) - 1e+06 B18(8) - 1e+06 B114(2) + C265(8) - C273(10)
   >= -2.999978e+06
 c142: - 1e+06 B10(7) - 1e+06 B18(8) + 1e+06 B114(2) - C265(8) + C273(10)
   >= -1.999993e+06
 c143: - 1e+06 B10(7) - 1e+06 B24(8) - 1e+06 B117(2) + C265(8) - C279(10)
   >= -2.999976e+06
 c144: - 1e+06 B10(7) - 1e+06 B24(8) + 1e+06 B117(2) - C265(8) + C279(10)
   >= -1.999987e+06
 c145: - 1e+06 B11(15) - 1e+06 B28(11) - 1e+06 B119(2) + C266(16)
   - C283(12) >= -2.999991e+06
 c146: - 1e+06 B11(15) - 1e+06 B28(11) + 1e+06 B119(2) - C266(16)
   + C283(12) >= -1.999991e+06
 c147: - 1e+06 B13(16) - 1e+06 B14(16) - 1e+06 B127(2) + C268(17)
   - C269(17) >= -2.999993e+06
 c148: - 1e+06 B13(16) - 1e+06 B14(16) + 1e+06 B127(2) - C268(17)
   + C269(17) >= -1.999978e+06
 c149: - 1e+06 B12(20) - 1e+06 B17(20) - 1e+06 B128(2) + C267(21)
   - C272(20) >= -2.999993e+06
 c150: - 1e+06 B12(20) - 1e+06 B17(20) + 1e+06 B128(2) - C267(21)
   + C272(20) >= -1.999987e+06
 c151: - 1e+06 B12(20) - 1e+06 B20(18) - 1e+06 B130(2) + C267(21)
   - C275(18) >= -2.99998e+06
 c152: - 1e+06 B12(20) - 1e+06 B20(18) + 1e+06 B130(2) - C267(21)
   + C275(18) >= -1.999992e+06
 c153: - 1e+06 B13(16) - 1e+06 B23(14) - 1e+06 B131(2) + C268(17)
   - C278(14) >= -2.999976e+06
 c154: - 1e+06 B13(16) - 1e+06 B23(14) + 1e+06 B131(2) - C268(17)
   + C278(14) >= -1.999986e+06
 c155: - 1e+06 B12(20) - 1e+06 B25(20) - 1e+06 B132(2) + C267(21)
   - C280(22) >= -2.999978e+06
 c156: - 1e+06 B12(20) - 1e+06 B25(20) + 1e+06 B132(2) - C267(21)
   + C280(22) >= -1.999989e+06
 c157: - 1e+06 B12(20) - 1e+06 B26(19) - 1e+06 B133(2) + C267(21)
   - C281(20) >= -2.999994e+06
 c158: - 1e+06 B12(20) - 1e+06 B26(19) + 1e+06 B133(2) - C267(21)
   + C281(20) >= -1.999985e+06
 c159: - 1e+06 B13(16) - 1e+06 B29(13) - 1e+06 B134(2) + C268(17)
   - C284(14) >= -2.999984e+06
 c160: - 1e+06 B13(16) - 1e+06 B29(13) + 1e+06 B134(2) - C268(17)
   + C284(14) >= -1.999988e+06
 c161: - 1e+06 B13(16) - 1e+06 B14(16) - 1e+06 B141(2) - C268(17)
   + C269(17) >= -2.999978e+06
 c162: - 1e+06 B13(16) - 1e+06 B14(16) + 1e+06 B141(2) + C268(17)
   - C269(17) >= -1.999993e+06
 c163: - 1e+06 B15(10) - 1e+06 B19(12) - 1e+06 B144(2) + C270(11)
   - C274(14) >= -2.999995e+06
 c164: - 1e+06 B15(10) - 1e+06 B19(12) + 1e+06 B144(2) - C270(11)
   + C274(14) >= -1.999982e+06
 c165: - 1e+06 B15(10) - 1e+06 B21(12) - 1e+06 B145(2) + C270(11)
   - C276(12) >= -2.99999e+06
 c166: - 1e+06 B15(10) - 1e+06 B21(12) + 1e+06 B145(2) - C270(11)
   + C276(12) >= -1.999985e+06
 c167: - 1e+06 B14(16) - 1e+06 B23(14) - 1e+06 B146(2) + C269(17)
   - C278(14) >= -2.999992e+06
 c168: - 1e+06 B14(16) - 1e+06 B23(14) + 1e+06 B146(2) - C269(17)
   + C278(14) >= -1.999993e+06
 c169: - 1e+06 B14(16) - 1e+06 B29(13) - 1e+06 B149(2) + C269(17)
   - C284(14) >= -2.999993e+06
 c170: - 1e+06 B14(16) - 1e+06 B29(13) + 1e+06 B149(2) - C269(17)
   + C284(14) >= -1.999977e+06
 c171: - 1e+06 B12(20) - 1e+06 B17(20) - 1e+06 B156(2) - C267(21)
   + C272(20) >= -2.999987e+06
 c172: - 1e+06 B12(20) - 1e+06 B17(20) + 1e+06 B156(2) + C267(21)
   - C272(20) >= -1.999993e+06
 c173: - 1e+06 B17(20) - 1e+06 B20(18) - 1e+06 B160(2) + C272(20)
   - C275(18) >= -2.999983e+06
 c174: - 1e+06 B17(20) - 1e+06 B20(18) + 1e+06 B160(2) - C272(20)
   + C275(18) >= -1.999989e+06
 c175: - 1e+06 B17(20) - 1e+06 B25(20) - 1e+06 B162(2) + C272(20)
   - C280(22) >= -2.999983e+06
 c176: - 1e+06 B17(20) - 1e+06 B25(20) + 1e+06 B162(2) - C272(20)
   + C280(22) >= -1.99997e+06
 c177: - 1e+06 B17(20) - 1e+06 B26(19) - 1e+06 B163(2) + C272(20)
   - C281(20) >= -2.999982e+06
 c178: - 1e+06 B17(20) - 1e+06 B26(19) + 1e+06 B163(2) - C272(20)
   + C281(20) >= -1.999975e+06
 c179: - 1e+06 B16(12) - 1e+06 B28(11) - 1e+06 B164(2) + C271(12)
   - C283(12) >= -2.999986e+06
 c180: - 1e+06 B16(12) - 1e+06 B28(11) + 1e+06 B164(2) - C271(12)
   + C283(12) >= -1.999988e+06
 c181: - 1e+06 B19(12) - 1e+06 B21(12) - 1e+06 B175(2) + C274(14)
   - C276(12) >= -2.999992e+06
 c182: - 1e+06 B19(12) - 1e+06 B21(12) + 1e+06 B175(2) - C274(14)
   + C276(12) >= -1.999992e+06
 c183: - 1e+06 B18(8) - 1e+06 B24(8) - 1e+06 B177(2) + C273(10) - C279(10)
   >= -2.999988e+06
 c184: - 1e+06 B18(8) - 1e+06 B24(8) + 1e+06 B177(2) - C273(10) + C279(10)
   >= -1.999992e+06
 c185: - 1e+06 B19(12) - 1e+06 B21(12) - 1e+06 B189(2) - C274(14)
   + C276(12) >= -2.999992e+06
 c186: - 1e+06 B19(12) - 1e+06 B21(12) + 1e+06 B189(2) + C274(14)
   - C276(12) >= -1.999992e+06
 c187: - 1e+06 B20(18) - 1e+06 B25(20) - 1e+06 B192(2) + C275(18)
   - C280(22) >= -2.999989e+06
 c188: - 1e+06 B20(18) - 1e+06 B25(20) + 1e+06 B192(2) - C275(18)
   + C280(22) >= -1.999983e+06
 c189: - 1e+06 B20(18) - 1e+06 B26(19) - 1e+06 B193(2) + C275(18)
   - C281(20) >= -2.999994e+06
 c190: - 1e+06 B20(18) - 1e+06 B26(19) + 1e+06 B193(2) - C275(18)
   + C281(20) >= -1.999987e+06
 c191: - 1e+06 B22(10) - 1e+06 B27(9) - 1e+06 B208(2) + C277(10) - C282(10)
   >= -2.999976e+06
 c192: - 1e+06 B22(10) - 1e+06 B27(9) + 1e+06 B208(2) - C277(10) + C282(10)
   >= -1.999996e+06
 c193: - 1e+06 B23(14) - 1e+06 B29(13) - 1e+06 B209(2) + C278(14)
   - C284(14) >= -2.99998e+06
 c194: - 1e+06 B23(14) - 1e+06 B29(13) + 1e+06 B209(2) - C278(14)
   + C284(14) >= -1.999993e+06
 c195: - 1e+06 B25(20) - 1e+06 B26(19) - 1e+06 B223(2) + C280(22)
   - C281(20) >= -2.999988e+06
 c196: - 1e+06 B25(20) - 1e+06 B26(19) + 1e+06 B223(2) - C280(22)
   + C281(20) >= -1.999992e+06
 c197: - 1e+06 B25(20) - 1e+06 B26(19) - 1e+06 B237(2) - C280(22)
   + C281(20) >= -2.999992e+06
 c198: - 1e+06 B25(20) - 1e+06 B26(19) + 1e+06 B237(2) + C280(22)
   - C281(20) >= -1.999988e+06
 c199: C255(13) >= 0
 c200: C255(13) >= 0
 c201: C256(11) >= 0
 c202: C256(11) >= 0
 c203: C257(21) >= 0
 c204: - B2(20) + C257(21) >= 0
 c205: C258(13) >= 0
 c206: - B3(12) + C258(13) >= 0
 c207: C259(20) >= 0
 c208: - B4(20) + C259(20) >= 0
 c209: C260(14) >= 0
 c210: - B5(14) + C260(14) >= 0
 c211: C261(18) >= 0
 c212: C261(18) >= 0
 c213: C262(16) >= 0
 c214: C262(16) >= 0
 c215: C263(16) >= 0
 c216: - 2 B8(16) + C263(16) >= 0
 c217: C264(18) >= 0
 c218: - 2 B9(18) + C264(18) >= 0
 c219: C265(8) >= 0
 c220: C265(8) >= 0
 c221: C266(16) >= 0
 c222: C266(16) >= 0
 c223: C267(21) >= 0
 c224: - 3 B12(20) + C267(21) >= 0
 c225: C268(17) >= 0
 c226: - 3 B13(16) + C268(17) >= 0
 c227: C269(17) >= 0
 c228: - 2 B14(16) + C269(17) >= 0
 c229: C270(11) >= 0
 c230: - 2 B15(10) + C270(11) >= 0
 c231: C271(12) >= 0
 c232: - B16(12) + C271(12) >= 0
 c233: C272(20) >= 0
 c234: - B17(20) + C272(20) >= 0
 c235: C273(10) >= 0
 c236: - B18(8) + C273(10) >= 0
 c237: C274(14) >= 0
 c238: - B19(12) + C274(14) >= 0
 c239: C275(18) >= 0
 c240: - 3 B20(18) + C275(18) >= 0
 c241: C276(12) >= 0
 c242: - 3 B21(12) + C276(12) >= 0
 c243: C277(10) >= 0
 c244: - 2 B22(10) + C277(10) >= 0
 c245: C278(14) >= 0
 c246: - 2 B23(14) + C278(14) >= 0
 c247: C279(10) >= 0
 c248: - 3 B24(8) + C279(10) >= 0
 c249: C280(22) >= 0
 c250: - 3 B25(20) + C280(22) >= 0
 c251: C281(20) >= 0
 c252: C281(20) >= 0
 c253: C282(10) >= 0
 c254: C282(10) >= 0
 c255: C283(12) >= 0
 c256: C283(12) >= 0
 c257: C284(14) >= 0
 c258: C284(14) >= 0
 c259: - 4 B2(20) - 2 B3(12) + C255(13) + C256(11) - C257(21) - C258(13)
   >= 0
 c260: - 2 B4(20) - 2 B5(14) + C257(21) + C258(13) - C259(20) - C260(14)
   >= 0
 c261: - 5 B8(16) - 4 B9(18) + C261(18) + C262(16) - C263(16) - C264(18)
   >= 0
 c262: - 4 B10(7) - 3 B11(15) + C261(18) + C262(16) - C265(8) - C266(16)
   >= 0
 c263: - 3 B14(16) - 3 B15(10) + C267(21) + C268(17) - C269(17) - C270(11)
   >= 0
 c264: - 3 B16(12) - 5 B17(20) + C269(17) + C270(11) - C271(12) - C272(20)
   >= 0
 c265: - 5 B20(18) - 4 B21(12) + C273(10) + C274(14) - C275(18) - C276(12)
   >= 0
 c266: - 2 B22(10) - 4 B23(14) + C273(10) + C274(14) - C277(10) - C278(14)
   >= 0
 c267: - 3 B26(19) - 4 B27(9) + C279(10) + C280(22) - C281(20) - C282(10)
   >= 0
 c268: - 5 B28(11) - 4 B29(13) + C279(10) + C280(22) - C283(12) - C284(14)
   >= 0
 c269: - 5 B0(11) - 5 B1(9) - 5 B6(15) - 2 B7(13) - 3 B12(20) - 2 B13(16)
   - 2 B18(8) - 2 B19(12) - 4 B24(8) - 2 B25(20) - C255(13) - C256(11)
   - C261(18) - C262(16) - C267(21) - C268(17) - C273(10) - C274(14)
   - C279(10) - C280(22) + I285(1) >= 0
Bounds
Binaries
 B0(11) B1(9) B2(20) B3(12) B4(20) B5(14) B6(15) B7(13) B8(16) B9(18)
 B10(7) B11(15) B12(20) B13(16) B14(16) B15(10) B16(12) B17(20) B18(8)
 B19(12) B20(18) B21(12) B22(10) B23(14) B24(8) B25(20) B26(19) B27(9)
 B28(11) B29(13) B30(0) B31(2) B32(0) B33(0) B34(0) B35(0) B36(0) B37(2)
 B38(0) B39(2) B40(2) B41(2) B42(0) B43(2) B44(0) B45(2) B46(0) B47(2)
 B48(0) B49(2) B50(0) B51(2) B52(0) B53(2) B54(0) B55(2) B56(2) B57(2)
 B58(4) B59(0) B60(0) B61(2) B62(0) B63(2) B64(2) B65(0) B66(4) B67(2)
 B68(2) B69(0) B70(2) B71(2) B72(2) B73(2) B74(2) B75(0) B76(0) B77(0)
 B78(0) B79(2) B80(2) B81(2) B82(2) B83(2) B84(0) B85(0) B86(2) B87(0)
 B88(0) B89(4) B90(0) B91(0) B92(0) B93(2) B94(0) B95(2) B96(2) B97(0)
 B98(4) B99(0) B100(2) B101(0) B102(2) B103(2) B104(2) B105(0) B106(0)
 B107(0) B108(2) B109(2) B110(0) B111(0) B112(0) B113(2) B114(2) B115(0)
 B116(0) B117(2) B118(0) B119(2) B120(0) B121(0) B122(0) B123(0) B124(0)
 B125(0) B126(0) B127(2) B128(2) B129(0) B130(2) B131(2) B132(2) B133(2)
 B134(2) B135(0) B136(0) B137(0) B138(0) B139(0) B140(0) B141(2) B142(0)
 B143(0) B144(2) B145(2) B146(2) B147(0) B148(0) B149(2) B150(0) B151(0)
 B152(0) B153(0) B154(0) B155(0) B156(2) B157(0) B158(0) B159(0) B160(2)
 B161(0) B162(2) B163(2) B164(2) B165(0) B166(0) B167(0) B168(0) B169(0)
 B170(0) B171(0) B172(0) B173(0) B174(0) B175(2) B176(0) B177(2) B178(0)
 B179(0) B180(0) B181(0) B182(0) B183(0) B184(0) B185(0) B186(0) B187(0)
 B188(0) B189(2) B190(0) B191(0) B192(2) B193(2) B194(0) B195(0) B196(0)
 B197(0) B198(0) B199(0) B200(0) B201(0) B202(0) B203(0) B204(0) B205(0)
 B206(0) B207(0) B208(2) B209(2) B210(0) B211(0) B212(0) B213(0) B214(0)
 B215(0) B216(0) B217(0) B218(0) B219(0) B220(0) B221(0) B222(0) B223(2)
 B224(0) B225(0) B226(0) B227(0) B228(0) B229(0) B230(0) B231(0) B232(0)
 B233(0) B234(0) B235(0) B236(0) B237(2) B238(0) B239(0) B240(0) B241(0)
 B242(0) B243(0) B244(0) B245(0) B246(0) B247(0) B248(0) B249(0) B250(0)
 B251(0) B252(0) B253(0) B254(0)
Generals
 I285(1)
End
